27 69 31 88 62 63 64 11 19 7 82 48 10 30 71 65 35 34 78 3 77 68 80 
28 12 76 50 51 9 81 33 79 29 24 54 55 25 67 39 4 26 
53 40 22 41 2 13 
52 18 83 5 61 16 86 38 15 57 87 95 96 60 84 17 45 8 46 47 36 49 90 32 66 20 70 1 
6 99 59 93 98 85 91 44 14 43 42 100 37 92 97 94 89 
21 72 56 23 75 74 73 58 
